#Simulating 1000 N2 molecules

variable 	myDump equal 1000

# ------------------------------- Initialization Section --------------------
atom_style full
units real
pair_style lj/sf 8.0
pair_modify mix geometric
bond_style      harmonic
# ------------------------------- Atom Definition Section -------------------

# Reads a crystalline array array of methane (10x10x10)

read_data       "system.data"

# ------------------------------- Settings Section --------------------------

pair_coeff 1 1 0.122412 3.31
bond_coeff 1 5000.00 1.1

# ------------------------------- Run Equilibration -------------------------------
group nitrogen type 1
velocity nitrogen create 273.15 432567 dist uniform

# -- minimization protocol --

# Note: The minimization step is not necessary in this example.  However
#       in general, it's always a good idea to minimize the system beforehand.
#       (The "fShakeSPCE" fix was defined in system.in.settings. 
#        It is incompatible with "minimize", so we disable it first.)
#unfix         fShakeSPCE
thermo        500


# ------------------------------- Run NVT Section -------------------------------
# -- simulation protocol --

neighbor 0.5 bin
neigh_modify delay 0 every 1 check yes

timestep        1.0

dump            nvt_traj all custom ${myDump} traj_nvt.lammpstrj id mol type x y z
dump            velocities all custom ${myDump} velocities.dat id type vx vy vz
dump 		dcd_file all dcd ${myDump} dcd_nvt.dcd
fix             fxnvt all rigid/nvt molecule temp 273.15 273.15 100

run             1000000

write_data   system_after_nvt.data
