# ellipsoids

units		lj
atom_style	ellipsoid
atom_modify	first big
dimension	3

# create big ellipsoidal particles
variable 	L equal 10

lattice		sc 0.004
region		box block 0 ${L} 0 ${L} 0 ${L}
create_box	2 box
create_atoms	1 region box

 
set		type 1 mass 1.0
set		type 1 shape 20.0 1.0 1.0
group		big type 1
set		group big quat/random 29898

# Creating the second type
set 		group big  type/fraction 2 0.5 1231243
set             type 2 mass 1.0
set 		type 2 shape 1.0 1.0 1.0
group           small type 2

velocity	big create 1.44 87287 loop geom
velocity        small create 1.0 593849 loop geom

#Potentials 

pair_style      lj/cut 2.5
pair_coeff      1 1 1.0 1.0
pair_coeff      2 2 0.0 1.0 0.0
pair_coeff      1 2 0.0 1.0 2.0

pair_style      gayberne 1.0 3.0 1.0 4.0
pair_coeff      1 1 1.0 1.0 1 1 1 1 1 1
pair_coeff      1 2 1.0 1.0 1 1 1 1 1 1 0.0
pair_coeff      2 2 1.0 1.0 1 1 1 1 1 1 0.0

neighbor	0.3 bin
neigh_modify	delay 0 every 1 check yes

fix		1 big nve/asphere
#fix		2 all enforce2d

compute 	orient all property/atom quati quatj quatk quatw
compute 	shape all property/atom shapex shapey shapez
dump 		1 all custom 100 binary_3D.dump id type x y z &
        	c_orient[1] c_orient[2] c_orient[3] c_orient[4] &
        	c_shape[1] c_shape[2] c_shape[3]

compute		rot big temp/asphere

thermo_style	custom step temp c_rot epair etotal press
thermo		100
thermo_modify	lost warn
run 1000
