# ellipsoids

units		lj
atom_style	ellipsoid
atom_modify	first big
dimension	2

# create big ellipsoidal particles

lattice		sq 0.14
region		box block 0 10 0 10 -0.5 0.5
create_box	2 box
create_atoms	1 region box

set		type 1 mass 1.0
set		type 1 shape 3.0 1.0 1.0
group		big type 1
set		group big quat/random 29898

velocity	big create 1.44 87287 loop geom

# equilibrate big particles

pair_style      gayberne 1.0 3.0 1.0 4.0
pair_coeff      1 1 1.0 1.0 1 1 1 1 1 1
pair_coeff      1 2 1.0 1.0 1 1 1 1 1 1 0.0
pair_coeff      2 2 1.0 1.0 1 1 1 1 1 1 0.0

neighbor	0.3 bin
neigh_modify	delay 0 every 1 check yes

fix		1 big nve/asphere
fix		2 all enforce2d

compute 	orient all property/atom quati quatj quatk quatw
compute 	shape all property/atom shapex shapey shapez
dump 		1 all custom 100 ellipsoid.dump id type x y z &
        	c_orient[1] c_orient[2] c_orient[3] c_orient[4] &
        	c_shape[1] c_shape[2] c_shape[3]

compute		rot big temp/asphere
compute 	quaternions big  property/atom quatw quati quatj quatk

thermo_style	custom step temp c_rot epair etotal press
thermo		100

run 1000
