#3D WCA flow simulation to reproduce the results on 
# Reproducing Todd 1995

# Improved initialization with the two types of crystalline lattices.
# Type 1 is the solution
# Type 2 is the Wall


boundary	p p p #f is fixed wall, to set the slipwall condition, it cant be periodic. 

units		lj
atom_style	atomic
neighbor	0.3 bin
neigh_modify	delay 5

#Variable definition

variable 	nrun equal 1.18e7 #Number of steps
variable	Myequil equal 1e5
variable 	Lx equal 5.2479
variable 	Ly equal 5.2479
variable	Lz equal 26.5625
variable 	F equal 0.05
variable 	rho_solid equal 0.6535839871060429
variable 	rho_fluid equal 0.8362
variable 	seed_vel equal 12134
variable 	T equal 0.722
variable 	K equal 57.15 # Spring constant
variable 	tstep equal 0.001
variable 	delta_z equal 0.1 #for the bins in z

#Some computations for the solid wall
variable 	a_solid equal (4/${rho_solid})^(1/3)   #lattice constant for the solid
variable 	lz_wall equal 1.5*${a_solid}

# To have the center of the fluid region at z=0
variable 	lz_fluid equal ${Lz}-${lz_wall}
variable 	lz_fluid_half equal ${lz_fluid}/2.0
variable 	lz_box_low equal -(${lz_fluid_half}+${lz_wall})

#Creating the geometry
region 		box block 0 ${Lx} 0 ${Ly}  ${lz_box_low} ${lz_fluid_half} units box
create_box	2 box

#Wall atoms

lattice 	fcc ${rho_solid} #orient x 1 1 1 orient y 1 -1 0 orient z 1 1 -2
region 		Wall block 0 ${Lx} 0 ${Ly} ${lz_box_low} -${lz_fluid_half} units box
create_atoms 	2 region Wall
group 		WallAtoms region Wall

#Fluid atoms
lattice 	fcc ${rho_fluid}
region 		Fluid block 0 ${Lx} 0 ${Ly} -${lz_fluid_half} ${lz_fluid_half} units box  
create_atoms	1 region Fluid 
group 		Flow subtract all WallAtoms


# Potential and pertinent checks
include 	in.interaction
pair_write 	1 2 500 r 1.0 2 wca.dat LJ


write_data 	initial.dat

run 0

# Minimisation keeping the wall fixed

#fix 		fix_minimisation WallAtoms aveforce  0 0 0 


#fix 		1 all nve/limit 0.1

fix             wallset WallAtoms setforce 0 0 0
#minimize 	0.0 1.0e-8 1000 00000          #Relax the initial configuration and velocities
fix             6 Flow addforce $F 0.0 0.0  #to add the pressure
#run 100000
# Running equilibration

#velocity 	Flow create $T ${seed_vel} dist gaussian

 

# Run Parameters

timestep	${tstep}
minimize        0.0 1.0e-8 1000 100000          #Relax the initial configuration and velocities

#velocity 	WallAtoms create $T 4928459  dist gaussian

# Thermostat only on wall

fix 		Ensemble1 WallAtoms nvt temp $T $T 0.500
fix 		Ensemble Flow  nve
#compute 	wallT WallAtoms temp
#fix 		GaussianThermo WallAtoms temp/rescale 1 $T $T 0.02 1.0
#fix_modify	GaussianThermo temp wallT
#fix 1 all nve/limit 0.1
# Previous line specifies: NVT thermostatted by Nose-Hoover a chained thermostat, the last parameter is the damping parameter in time units

run 		10000
unfix           wallset
 		
fix             springs WallAtoms spring/self $K

#Compute and outputs
thermo		500 
thermo_style custom step temp
#thermo_modify	temp mobile # This is not the temperature of the thermostat cause this measures only the Flow part, not the entire system. 

dump            1 all xyz 10000 trajectory.xyz


run 		${Myequil}
include 	in.computations
run		${nrun}
