#This scripts computes the bulk viscosity of a Lennard Jones system using GK of the stress tensor autocorrelation

units 		lj
atom_style 	atomic
neighbor 	0.5 bin
neigh_modify 	every 1 delay 10 check yes

#Variable definition

variable 	P equal 1
variable 	T equal 1
variable    	ps equal 400     # correlation length
variable    	ss equal 5       # sample interval
variable    	ds equal ${ps}*${ss}   # dump interval
variable 	Mystep equal 0.005
variable 	Mybarostat equal 2e5

variable 	Myrun equal 1e6
variable 	L index 25
variable 	a equal 1 #Lattice constant
variable 	vel_seed equal 1234245

#Creating the system

boundary 	p p p
region 		box block 0.0 ${L} 0.0 ${L} 0.0 ${L}

create_box 	1 box
lattice 	sc $a
create_atoms 	1 box

include 	../in.interaction



#minimize        0 0 10000 10000
timestep	${Mystep}

velocity        all create $T 12 dist gaussian

#Barostating the system 
variable 	Ly equal ly
fix 		barostat all npt temp $T $T 0.1 y $P $P 5.0
fix             average_ly all ave/time 1 1000 1000 v_Ly ave running overwrite
thermo 		100
thermo_style custom step temp press density atoms ly 
run ${Mybarostat}


#Setting the simulation to the average ly

unfix 		barostat

fix  		Ensemble all nvt temp $T $T 0.1

variable        ly_ave equal f_average_ly
print           "The average value of ly is ${ly_ave}"
change_box      all y final 0 ${ly_ave} units box
unfix 		average_ly
include 	in.computations

#Viscosity calculations

fix          SS all ave/correlate ${ss} ${ps} ${ds} v_pxy v_pxz v_pyz type auto file S0St.dat ave running

variable         scale equal 1.0/${T}*vol*${ss}*${Mystep}
variable     v11 equal trap(f_SS[3])*${scale}
variable     v22 equal trap(f_SS[4])*${scale}
variable     v33 equal trap(f_SS[5])*${scale}

thermo		${ds}
thermo_style custom step temp press density atoms v_pxy v_pxz v_pyz v_v11 v_v22 v_v33
thermo_modify lost warn
run ${Myrun}

variable     v equal (v_v11+v_v22+v_v33)/3.0
variable     ndens equal count(all)/vol

print       "average viscosity: $v @ $T , ${ndens}"
