region box block 0 20 0 19.47 0 30
create_box 3 box
create_atoms 1 random 8292 123823 NULL
read_dump dumpfile10000.gz 10000  x y z ix iy iz vx vy vz box yes add yes
mass * 1.0
pair_style lj/cut 2.5
pair_coeff * * 1.0 1.0 2.5
compute gr all rdf 100 1 1
fix  2 all ave/time 1 1 1 c_gr[*] file gr.dat mode vector
