# Test to evaluate the GCMC implementation
# The input parameter is the chemical potential as -v mu VALUE

variable 	Lx equal 10
variable 	myRun equal 1e4
variable 	myThermo equal 1e2
variable 	myDump equal 1e2
variable	mu1 equal 0.4736842105263155
variable	 mu1 equal 0.4736842105263155
variable	Temp equal 1.0
variable 	MCdisp equal 0.0

log log.mu1_${mu1}_mu2_${mu2}

timestep        0.005

boundary p p p

units 	lj
atom_style      atomic
neighbor        0.5 bin
neigh_modify    every 1 delay 10 check yes



region          box block 0 ${Lx} 0 ${Lx} 0 ${Lx}
create_box      2 box

include 	in.interaction

# we recommend setting up a dedicated group for gcmc
group 		gSolv type 1
group 		gSolu type 2

fix  		gcmcSolv gSolv gcmc 1 100 0 1 123423 ${Temp} ${mu1} ${MCdisp} 
fix 		gcmcSolu gSolu gcmc 1 100 0 2 214223 ${Temp} ${mu2} ${MCdisp}
#fix             Ensemble all nvt temp ${Temp} ${Temp} 1.0

variable 	rhoSolv equal count(gSolv)/vol
variable 	rhoSolu equal count(gSolu)/vol


thermo          ${myThermo}
thermo_style    custom step temp press density v_rhoSolv v_rhoSolu 
compute_modify 	thermo_temp dynamic yes

dump            dump_all all custom ${myDump} all.atom id type x y z ix iy iz

run 		${myRun}
write_restart 	restart_mu1_${mu1}_mu2_${mu2}.dat
